NAME : obs.obs
TIME : 2020-10-29 22:19:06
COMMENT : hello world
DIMENSION : 27
OBSTACLE_SECTION
0 55.8838 42.5403
1 53.6202 42.5403
2 50.5079 42.3387
3 47.6785 42.7419
4 45.4149 42.7419
5 55.6008 65.7258
6 52.7714 65.7258
7 50.2249 65.7258
8 47.3955 65.9274
9 45.4149 65.9274
10 56.4497 84.0726
11 54.1861 84.8790
12 51.9226 84.4758
13 50.2249 84.4758
14 48.2443 83.8710
15 55.0349 67.1371
16 52.4885 66.3306
17 50.5079 65.5242
18 49.0932 64.9194
19 47.3955 64.1129
20 54.4691 83.0645
21 52.7714 84.0726
22 50.7908 84.8790
23 49.0932 86.0887
24 53.0544 41.3306
25 51.0738 43.3468
26 49.0932 44.7581
EOF
